SDVRP instances/custom_instances/p01_18_split0.vrp
NAME:p01_18_split
BEST_KNOWN: 0
COMMENT: 0
DIMENSION: 188
CAPACITY: 160
EDGE_WEIGHT_FORMAT: FUNCTION
EDGE_WEIGHT_TYPE: EXACT_2D
NODE_COORD_SECTION
1 0.00000 0.00000
2 41 19
3 41 19
4 41 19
5 -2 -12
6 -2 -12
7 -2 -12
8 0 11
9 0 11
10 0 11
11 16 18
12 16 18
13 16 18
14 16 18
15 16 18
16 -25 -43
17 -25 -43
18 -25 -43
19 -25 -43
20 44 -15
21 44 -15
22 16 -7
23 16 -7
24 16 -7
25 16 -7
26 16 -7
27 -47 -31
28 -47 -31
29 -7 -35
30 -7 -35
31 -7 -35
32 -7 -35
33 -7 -35
34 -7 -35
35 -32 -38
36 -32 -38
37 22 33
38 22 33
39 22 33
40 24 -27
41 24 -27
42 24 -27
43 24 -27
44 24 -27
45 -18 -8
46 -18 -8
47 -18 -8
48 -18 -8
49 15 -28
50 15 -28
51 15 -28
52 15 -28
53 15 -28
54 -38 -20
55 -38 -20
56 -38 -20
57 4 43
58 4 43
59 14 -43
60 14 -43
61 14 -43
62 -30 19
63 -30 19
64 -30 19
65 -30 19
66 -30 19
67 -47 48
68 -47 48
69 -47 48
70 34 -3
71 34 -3
72 34 -3
73 -37 -6
74 -37 -6
75 -37 -6
76 -37 -6
77 -38 42
78 -38 42
79 20 -9
80 20 -9
81 27 46
82 27 46
83 27 46
84 27 46
85 27 46
86 -12 -40
87 -12 -40
88 13 -16
89 13 -16
90 13 -16
91 13 -16
92 13 -16
93 13 -16
94 -28 38
95 -28 38
96 -28 38
97 -28 38
98 -23 -44
99 -23 -44
100 -23 -44
101 -23 -44
102 -29 -25
103 -29 -25
104 -29 -25
105 -29 -25
106 -1 4
107 -1 4
108 -1 4
109 -1 4
110 -1 4
111 9 0
112 9 0
113 9 0
114 -19 -17
115 -19 -17
116 -1 50
117 -1 50
118 -1 50
119 -1 50
120 -17 13
121 -17 13
122 -17 13
123 -17 13
124 -17 13
125 -17 13
126 -48 28
127 -48 28
128 -26 -11
129 -26 -11
130 -26 -11
131 -26 -11
132 26 42
133 26 42
134 26 42
135 26 42
136 26 42
137 -48 23
138 -48 23
139 -48 23
140 -8 37
141 -8 37
142 -8 37
143 -8 37
144 34 -45
145 34 -45
146 34 -45
147 -8 -16
148 -8 -16
149 -8 -16
150 -8 -16
151 17 -6
152 17 -6
153 17 -6
154 17 -6
155 17 -6
156 5 -17
157 5 -17
158 5 -17
159 5 -17
160 5 -17
161 34 47
162 34 47
163 34 47
164 34 47
165 26 -24
166 26 -24
167 26 -24
168 -9 -25
169 -9 -25
170 -9 -25
171 -9 -25
172 -9 -25
173 -37 30
174 -37 30
175 -37 30
176 -37 30
177 -37 30
178 40 39
179 40 39
180 40 39
181 37 -45
182 37 -45
183 37 -45
184 37 -45
185 39 -20
186 39 -20
187 39 -20
188 39 -20
DEMAND_SECTION
1 0
2 32
3 2
4 1
5 32
6 16
7 8
8 32
9 16
10 2
11 32
12 32
13 2
14 2
15 2
16 32
17 16
18 2
19 1
20 32
21 8
22 32
23 8
24 2
25 2
26 1
27 32
28 32
29 16
30 8
31 2
32 2
33 2
34 1
35 16
36 8
37 32
38 32
39 16
40 32
41 16
42 8
43 2
44 1
45 16
46 8
47 2
48 1
49 32
50 8
51 2
52 2
53 2
54 16
55 8
56 2
57 32
58 8
59 32
60 16
61 2
62 16
63 8
64 2
65 2
66 2
67 32
68 32
69 2
70 16
71 2
72 2
73 32
74 16
75 8
76 2
77 32
78 1
79 32
80 16
81 32
82 32
83 2
84 2
85 2
86 32
87 16
88 32
89 16
90 8
91 2
92 2
93 1
94 32
95 32
96 8
97 2
98 32
99 32
100 8
101 2
102 32
103 2
104 2
105 1
106 32
107 16
108 8
109 2
110 2
111 32
112 16
113 1
114 32
115 16
116 32
117 32
118 2
119 2
120 32
121 16
122 8
123 2
124 2
125 1
126 32
127 32
128 32
129 8
130 2
131 1
132 32
133 8
134 2
135 2
136 2
137 16
138 8
139 2
140 32
141 16
142 2
143 2
144 16
145 8
146 2
147 32
148 32
149 2
150 1
151 32
152 8
153 2
154 2
155 2
156 32
157 16
158 8
159 2
160 1
161 32
162 16
163 2
164 1
165 32
166 32
167 16
168 32
169 32
170 2
171 2
172 2
173 32
174 2
175 2
176 2
177 1
178 32
179 32
180 1
181 32
182 2
183 2
184 1
185 32
186 16
187 8
188 2
DEPOT_SECTION
1
-1
EOF