SDVRP instances/custom_instances/p01_18_split0.sol
187 -4 146 147 159 155 156 158 157 -5 30 32 28 31 33 29 85 86 168 167 -6 113 114 130 129 128 127 72 74 75 73 -8 9 7 64 62 61 63 65 119 121 123 122 120 124 -13 14 12 10 11 2 3 1 111 110 112 -22 21 23 25 24 78 79 152 153 154 151 150 -35 34 16 17 15 18 99 98 97 100 169 170 171 148 149 -37 36 38 133 134 135 81 82 80 83 84 -47 44 46 45 55 54 53 26 27 104 102 101 103 -48 50 52 49 51 182 183 181 180 145 143 144 58 59 60 -57 56 115 116 117 118 142 140 141 139 -68 67 66 125 126 138 137 136 -71 70 69 20 19 185 187 186 184 89 92 87 -91 90 88 40 43 42 39 41 164 166 165 -95 96 93 94 77 76 175 176 172 173 174 -105 109 107 106 108 -131 132 163 161 162 160 179 177 178 0 





OBJ=
1580.494
BEST_KNOWN=
0.000